&Global
  PROJECT LiBr-2p4M-R2SCAN
  RUN_TYPE MD
  PRINT_LEVEL LOW
&END GLOBAL

&FORCE_EVAL
  &SUBSYS
    &CELL
      ABC  13.7 13.7 13.7
      PERIODIC xyz
     &END CELL 
    &COORD
 O         7.263810       -2.013610       -8.863350
 H         6.306220       -1.794760       -8.662800
 H         7.974050       -1.659110       -8.211680
 O         7.828390       -3.749340      -10.831400
 H         7.609980       -3.013030      -10.084200
 H         6.940950       -4.248090      -10.765500
 O        10.571800        2.353000        8.821140
 H        11.075000        1.525970        8.435210
 H         9.596210        2.054500        9.100430
 O         0.225364        5.092510        3.486960
 H         0.007847        5.394090        2.566010
 H        -0.658300        4.804340        3.877080
 O         2.320770        4.523610        9.077240
 H         2.165060        3.823690        8.296500
 H         1.352720        4.551060        9.435440
 O         3.060890        6.683550        2.926170
 H         2.265850        7.167950        2.506390
 H         3.513430        6.267130        2.092680
 O         4.454180        3.168230       -3.599350
 H         5.074670        2.836720       -4.369940
 H         3.613400        3.666210       -3.908200
 O        -1.874280       10.157600       -0.580261
 H        -2.652620        9.543880       -0.402353
 H        -1.052650        9.621840       -0.388552
 O        -0.112738       11.283300       10.219100
 H        -0.430554       10.350000       10.360800
 H         0.249286       11.247700        9.282910
 O        -1.914080       -0.577663       -9.738710
 H        -1.197010       -1.012070      -10.326400
 H        -2.436210       -0.211315      -10.506700
 O        -4.036800        8.645850       -0.422356
 H        -4.302730        7.905530        0.172970
 H        -4.570300        9.445040        0.003223
 O        -1.861920       13.022500       -2.530330
 H        -1.092390       12.422200       -2.923900
 H        -2.528360       13.226800       -3.243770
 O        -6.793560        6.864920        3.810620
 H        -5.832940        6.877150        3.547740
 H        -7.208400        6.205830        3.066820
 O         8.518210        2.063170      -10.226200
 H         9.139580        2.769480       -9.738750
 H         8.246380        1.679230       -9.285150
 O        -3.402290       10.866900        8.496830
 H        -3.049300       11.385200        7.681190
 H        -2.623010       10.380100        8.971620
 O        -0.428249       12.996200        0.214797
 H        -0.195318       13.985500        0.245803
 H        -0.195074       12.653700        1.153600
 O         6.670570       16.736200      -11.948900
 H         7.150860       16.137899      -11.261400
 H         7.043100       16.580700      -12.910500
 O         1.059620       10.959400       -6.032420
 H         0.368054       10.607300       -6.675860
 H         1.618900       11.418400       -6.791410
  O         9.004090        5.511720        9.315080
 H         8.738400        4.966420        8.473700
 H        10.000300        5.499390        9.380430
 O        10.363800        7.201370        5.896010
 H        11.260900        7.568650        6.254570
 H        10.424400        6.206620        5.663730
 O        13.191000       -8.379280       14.492600
 H        13.281800       -9.319060       14.102900
 H        12.185100       -8.205050       14.735000
 O         4.410560        2.590980        3.945460
 H         5.065630        2.673690        3.214670
 H         4.829210        2.847850        4.836480
 O        16.124100      -15.869400       -2.298700
 H        15.152600      -16.049801       -2.539160
 H        16.546801      -15.663400       -3.212980
 O        10.491800        2.471850        0.398511
 H        10.252300        3.404090        0.831468
 H        11.495600        2.589550        0.187995
 O        16.745300       -5.334300       -4.982650
 H        16.571699       -4.583790       -5.618410
 H        15.873800       -5.415420       -4.506580
 O         0.757630        6.033980        5.902380
 H         0.501934        5.760620        4.947490
 H         0.512338        5.176270        6.417380
 O         3.304430        0.435964        5.658830
 H         2.770020       -0.476325        5.620610
 H         3.933730        0.270619        6.458030
 O         8.308330       -0.995623       -6.475590
 H         8.768750       -0.324392       -5.853790
 H         7.553860       -1.307620       -5.874910
 O         9.893110       -4.237520        4.835720
 H         9.381190       -4.185770        3.975410
 H        10.041700       -5.248550        4.998560
 O        11.567600        4.738110        8.580470
 H        12.037700        4.552130        7.685820
 H        11.087900        3.819980        8.704120
 O        -2.386170        7.363650       11.760200
 H        -3.107280        7.855640       12.311200
 H        -2.477130        6.390110       11.968600
 O        -3.670000       12.795800        0.300036
 H        -4.397730       12.130600        0.218697
 H        -3.843810       13.426400        1.060410
 O        -0.348539       10.130900        5.639080
 H         0.067315       10.257000        4.749630
 H        -1.174870       10.734600        5.529320
 O        11.169100       11.788200        6.137950
 H        11.343500       12.406400        5.282750
 H        10.644400       10.957800        5.766570
 O        10.704300        5.319410        1.521500
 H        10.551600        4.926630        2.448190
 H         9.856610        5.742660        1.141960
 O         3.403800       -0.706195       -0.296331
 H         2.750500       -1.108250       -0.961771
 H         3.887410       -0.085831       -0.996921
  O        -5.725260       21.554501       -2.661370
 H        -5.376640       21.837799       -1.750250
 H        -5.686530       22.349600       -3.365480
 O        21.204901       14.073900       -2.004500
 H        20.205601       14.269600       -1.957200
 H        21.179501       13.071400       -2.284750
 O         3.902360        5.428930        0.148989
 H         3.789990        5.874460       -0.760873
 H         3.506630        4.519020       -0.004100
 O         1.977630        9.294510        1.711000
 H         1.393910       10.052900        2.122550
 H         1.504350        8.978420        0.881062
 O         1.482920        1.551670       10.534500
 H         0.729741        1.916860       11.084400
 H         2.129750        1.171370       11.262100
 O         3.521930        5.726680        5.300550
 H         3.445960        6.044550        4.333320
 H         2.663900        6.084370        5.621000
 O         6.418170        6.703290        6.373360
 H         7.039510        7.387050        6.826740
 H         6.677680        6.885950        5.399400
 O        11.203000        3.437820       11.581000
 H        11.916700        3.238340       12.236100
 H        11.638600        3.093710       10.693000
 O        14.731900       -6.449660       10.639700
 H        14.128600       -5.849330       10.151700
 H        14.244500       -7.385420       10.395100
 O        -9.319710       11.089300        4.114800
 H        -9.140550       11.176200        3.106670
 H        -9.252100       10.066300        4.158060
 O         7.866720        2.287960       -0.271068
 H         8.850310        2.099050       -0.124986
 H         7.584730        1.473220       -0.853044
 O        -1.659900       14.260900       21.470699
 H        -1.983380       13.498700       20.870501
 H        -1.009080       14.729900       20.968100
 O         8.442200        6.216700       14.447800
 H         7.437710        6.298810       14.637800
 H         8.419870        5.509030       13.693600
 O        14.531800        7.652820       -0.319833
 H        14.052100        6.805390        0.017628
 H        14.534200        7.357300       -1.312640
 O         4.043500       -1.613530        9.573260
 H         4.310750       -0.914471        8.937680
 H         4.796920       -2.287220        9.504830
 O         8.990070        4.594830       12.208900
 H         8.475630        3.763880       12.546700
 H         9.913550        4.125470       11.923000
 O         8.326050        9.560060        9.391330
 H         8.020310        9.250440        8.449560
 H         9.206100       10.078000        9.105390
 O         7.607650        1.353160        6.045970
 H         6.649760        1.390400        6.394380
 H         7.856620        0.442937        6.356850
  O        12.854900        8.100080        6.985340
 H        13.551700        7.384010        6.900720
 H        13.242100        8.873060        6.361900
 O         1.294290       16.205799        3.740800
 H         1.200470       17.197500        3.761320
 H         0.433033       15.893200        4.240910
 O         6.018320        5.279720       11.075000
 H         5.410940        4.501020       11.172700
 H         5.337300        6.017250       10.972000
 O         6.110620        5.477130        1.790600
 H         5.279610        5.348560        1.206880
 H         6.238260        4.524490        2.036030
 O         8.482670        3.755790        7.109150
 H         9.334250        4.079930        6.606220
 H         8.340860        2.785900        6.889490
 O        19.565800        3.859220        6.961960
 H        20.576099        4.035070        7.054570
 H        19.407301        2.923650        7.300600
 O         2.205670       -2.190940        5.569000
 H         1.773450       -2.406080        4.703440
 H         3.200970       -2.369770        5.298110
 O         3.514110       -7.332970       11.651100
 H         3.415130       -6.317710       11.904000
 H         2.606100       -7.494030       11.148200
 O         6.936950       -2.264350       10.777000
 H         6.657930       -2.803400       11.590500
 H         7.311060       -2.967700       10.194900
 O         2.693300      -10.957000       13.974100
 H         1.732740      -11.049300       13.682800
 H         2.583600      -11.197500       14.919700
 O        12.071200       -4.789790        9.491970
 H        12.103600       -5.277060        8.570730
 H        11.718100       -5.505780       10.176900
 O        -7.953350       10.074600       13.334700
 H        -8.435100       10.512600       14.156200
 H        -8.835840        9.656620       12.881000
 O        -9.598390       -2.914250       15.270200
 H       -10.374100       -3.582010       15.473500
 H       -10.106400       -2.154110       14.818600
 O        13.709600        4.993360       -3.850670
 H        12.912200        5.033340       -4.501430
 H        13.401800        4.283780       -3.206290
 O         4.664510        1.138810       12.231600
 H         4.431840        1.783480       12.907000
 H         4.533710        1.748760       11.365200
 O         8.315320        1.048920        9.417240
 H         7.334430        0.874671        9.124890
 H         8.155900        0.893553       10.404000
 O        -3.959780       14.454100       16.073099
 H        -3.705770       15.144000       15.312600
 H        -4.586800       15.007800       16.701500
 O         8.396960       10.775800       14.337800
 H         8.275910       10.909700       15.374600
 H         7.407760       10.554700       14.032700
  O        -8.792550       22.471701        3.282510
 H        -8.070080       21.742701        3.319510
 H        -9.623300       21.916500        2.988760
 O         4.059800        6.331170        8.183880
 H         3.468410        5.756710        8.804210
 H         3.677720        7.296950        8.341110
 O        13.774600        3.716650        6.905230
 H        14.436100        3.043430        7.299430
 H        13.256900        3.096930        6.253330
 O        -1.066520       15.710100        5.074360
 H        -1.295300       14.852100        4.556430
 H        -1.891800       16.305300        4.784150
 O        -5.777790       -4.910750        6.768440
 H        -5.706870       -4.254190        5.999550
 H        -5.068540       -5.628970        6.576220
 O         3.726960        9.280110       11.578600
 H         3.329640       10.225900       11.707900
 H         3.315170        9.076080       10.697900
 O         2.779880       13.888800       16.232201
 H         3.142850       13.816600       15.332800
 H         2.021260       13.090200       16.268801
 O        15.581000       15.899000        7.845460
 H        16.433599       15.567200        7.428090
 H        15.603500       15.587600        8.820450
 Li        2.966750        1.240470        3.939610
 Li       -2.004470       12.222800       -0.712134
 Li        4.877520        5.579100        6.646380
 Li        7.908000        5.794150       10.869400
 Br       10.727400        4.179000        4.555560
 Br       18.965099       14.683800        8.011430
 Br       13.486000        2.584890       13.386900
 Br        0.536359       11.667300       16.807600
    &END COORD
    &KIND H
      BASIS_SET DZVP-MOLOPT-SCAN-GTH-q1
      POTENTIAL GTH-SCAN-q1
    &END KIND
    &KIND O
      BASIS_SET DZVP-MOLOPT-SCAN-GTH-q6
      POTENTIAL GTH-SCAN-q6
    &END KIND
    &KIND Li
      BASIS_SET DZVP-MOLOPT-SCAN-GTH-q3
      POTENTIAL GTH-SCAN-q3
    &END KIND
    &KIND Br
      BASIS_SET DZVP-MOLOPT-SCAN-GTH-q7
      POTENTIAL GTH-SCAN-q7
    &END KIND
  &END SUBSYS
   METHOD QS
   &DFT
    BASIS_SET_FILE_NAME BASIS_MOLOPT_UZH
    POTENTIAL_FILE_NAME POTENTIAL_SCAN
    CHARGE 0
    &MGRID
      CUTOFF 1200
      NGRIDS 5
      REL_CUTOFF 60
    &END MGRID
    &QS
      EPS_DEFAULT 1.0E-12
      WF_INTERPOLATION ASPC
    &END QS
    &SCF
      MAX_SCF 20
      EPS_SCF 1.E-7
      SCF_GUESS ATOMIC
      &OT ON
        MINIMIZER DIIS
      &END OT
      &OUTER_SCF
        TYPE NONE
        EPS_SCF 1.E-7
        MAX_SCF 20
      &END OUTER_SCF
      &PRINT
        &RESTART OFF
        &END
      &END
    &END SCF
    &XC
      &XC_GRID
        XC_SMOOTH_RHO  NN4
        XC_DERIV NN4_SMOOTH
      &END XC_GRID
           &XC_FUNCTIONAL
              &MGGA_X_R2SCAN
              &END
              &MGGA_C_R2SCAN
              &END
      &END XC_FUNCTIONAL
    &END XC
  &END DFT
&END FORCE_EVAL

&MOTION
  &MD
    ENSEMBLE NVT
    STEPS 4000
     TIMESTEP 0.5
    TEMPERATURE 300.0
    &THERMOSTAT
      TYPE NOSE
      REGION GLOBAL
       &NOSE
       TIMECON [wavenumber_t] 3000
       &END NOSE
    &END THERMOSTAT
    &PRINT
      &ENERGY
        &EACH
          MD 1
        &END EACH
      &END ENERGY
    &END PRINT
  &END MD
  &PRINT
    &FORCES ON
    &END FORCES
  &END PRINT
&END MOTION

&EXT_RESTART
  RESTART_FILE_NAME LiBr-2p4M-R2SCAN-1.restart
&END EXT_RESTART
