&GLOBAL
  PROJECT KCl-DCR2SCAN-reftraj
  RUN_TYPE MD
  PRINT_LEVEL LOW
&END GLOBAL

&MOTION
  &MD
    ENSEMBLE REFTRAJ
    STEPS 2000
     &REFTRAJ
      TRAJ_FILE_NAME KCl-2p4M-R2SCAN-pos-1-40stride.xyz
      EVAL_ENERGY_FORCES T
      EVAL_FORCES T
   &END
  &END MD
&END MOTION


&FORCE_EVAL
 &PRINT
    &FORCES ON
    FILENAME =KCl-DCSR2CAN-reftrajforces.xyz
    &END FORCES
  &END PRINT
 METHOD QS
   &DFT
   BASIS_SET_FILE_NAME BASIS_ADMM
   BASIS_SET_FILE_NAME BASIS_ADMM_MOLOPT
   BASIS_SET_FILE_NAME BASIS_MOLOPT
   BASIS_SET_FILE_NAME HFX_BASIS
    POTENTIAL_FILE_NAME POTENTIAL_SCAN
    CHARGE 0
    &MGRID
      CUTOFF 1200
      NGRIDS 5
      REL_CUTOFF 60
    &END MGRID
    &QS
      EPS_DEFAULT 1.0E-12
      WF_INTERPOLATION ASPC
    &END QS
      &ENERGY_CORRECTION
      ENERGY_FUNCTIONAL        DCDFT
      &RESPONSE_SOLVER
        METHOD                 MO_SOLVER
        PRECONDITIONER         FULL_SINGLE_INVERSE
        EPS                    1.0E-6
      &END RESPONSE_SOLVER
      &XC
      &XC_GRID
        XC_SMOOTH_RHO  NN4
        XC_DERIV NN4_SMOOTH
      &END XC_GRID

&XC_FUNCTIONAL
	 &MGGA_X_R2SCAN
	 &END
	 &MGGA_C_R2SCAN
	 &END
        &END XC_FUNCTIONAL
	&END XC
    &END ENERGY_CORRECTION
    &SCF
      MAX_SCF 20
      EPS_SCF 1.E-7
      SCF_GUESS ATOMIC
      &OT ON
        PRECONDITIONER FULL_SINGLE_INVERSE
        MINIMIZER DIIS
      &END OT
      &OUTER_SCF
        TYPE NONE
        EPS_SCF 1.E-7
        MAX_SCF 20
      &END OUTER_SCF
      &PRINT
        &RESTART OFF
        &END
      &END
    &END SCF
    &XC
          &XC_GRID
        XC_SMOOTH_RHO  NN4
        XC_DERIV NN4_SMOOTH
      &END XC_GRID

    &XC_FUNCTIONAL NONE
        &END XC_FUNCTIONAL
     &HF
          FRACTION 1.0
          &SCREENING
            EPS_SCHWARZ 1.0E-5 
          &END
!          &INTERACTION_POTENTIAL
!             POTENTIAL_TYPE      TRUNCATED
!             CUTOFF_RADIUS      6.0
!             T_C_G_DATA          t_c_g.dat
!           &END INTERACTION_POTENTIAL
	   &MEMORY
          ! In MB per MPI rank.. use as much as need to get in-core operation
          MAX_MEMORY 3500
          EPS_STORAGE_SCALING 0.1
        &END
        &END

&END XC
! use ADMM
    &AUXILIARY_DENSITY_MATRIX_METHOD
      ! recommended, i.e. use a smaller basis for HFX
      ! each kind will need an AUX_FIT_BASIS_SET.
      METHOD BASIS_PROJECTION
      ! recommended, this method is stable and allows for MD. 
      ! can be expensive for large systems
      ADMM_PURIFICATION_METHOD NONE
      EXCH_SCALING_MODEL NONE
    &END
    &END DFT


&SUBSYS
    &CELL
      ABC  14.0223 14.0223 14.0223
      PERIODIC xyz
     &END CELL 
     &COORD
      O        -2.804340       -2.216530       -2.034830
 H        -2.012810       -1.573200       -2.025240
 H        -2.827660       -2.621320       -3.011530
 O         4.751610       -3.996440       -0.152129
 H         5.425460       -4.395520        0.572159
 H         5.459300       -3.424320       -0.625093
 O        -2.879930        2.872790        6.029560
 H        -1.914330        2.905820        5.759190
 H        -3.495310        3.084890        5.209650
 O         7.088960        5.601190        3.013360
 H         7.252730        5.815750        4.004940
 H         7.788120        4.936130        2.882050
 O         6.013100        0.601105       -2.800400
 H         6.123760        0.081052       -1.980150
 H         5.164700        1.226790       -2.873430
 O         4.066740        2.481160       -3.708830
 H         3.039510        2.353070       -3.624070
 H         4.190950        3.276840       -3.104710
 O         7.248720        3.439270        5.276460
 H         7.902320        3.778090        4.547990
 H         7.223680        2.495070        4.927440
 O         2.761150       -2.069520        0.629246
 H         2.012650       -2.781230        0.646609
 H         3.527860       -2.590030        0.304263
 O         6.086100        4.330280       -2.000130
 H         5.704730        3.595920       -1.452410
 H         6.888760        3.865570       -2.478360
 O        10.309300       -3.363010       -9.307590
 H        10.981200       -2.798160       -9.802930
 H        10.312100       -2.887980       -8.373570
 O        -6.470520        6.046300        0.283450
 H        -7.287450        6.424340       -0.270871
 H        -6.700340        5.990050        1.280670
 O         1.772150       14.070300       -1.873310
 H         2.257400       13.927900       -2.764720
 H         2.253680       13.437000       -1.256210
 O        11.593200       13.899900        4.989440
 H        11.996700       14.614400        4.398400
 H        11.968100       14.097200        5.959800
 O        10.766000        8.073160        5.474580
 H         9.843820        7.632330        5.635250
 H        10.598700        9.050090        5.394520
 O         6.058520        9.130810        2.032970
 H         6.980650        8.759980        1.928740
 H         5.746620        9.132350        3.025810
 O         0.978070        8.029110        1.544510
 H         0.972421        8.808420        0.778983
 H        -0.008964        7.949740        1.873140
 O         0.571764        7.079360       12.197400
 H         0.292648        6.554570       11.355100
 H         0.441490        7.992640       11.859300
 O        -5.706630       17.654699       -3.439760
 H        -5.061040       17.133499       -4.005930
 H        -5.083940       18.227699       -2.866490
 O         7.147310       11.545900       -4.713990
 H         7.138430       10.779200       -4.045570
 H         6.139860       11.628600       -5.060130
 O         5.977080        9.366670        4.655390
 H         5.332140        9.551860        5.475210
 H         6.543160        8.642480        5.160720
 O         1.069150        5.390430        5.026090
 H         1.418770        6.322040        5.272100
 H         0.414034        5.048170        5.753690
 O         8.801210       -4.913210        3.178200
 H         9.509390       -4.376390        3.713070
 H         8.343000       -5.511530        3.919630
 O         4.394020       -4.108440        6.855710
 H         4.324870       -3.138770        7.079910
 H         4.866650       -4.583090        7.683400
 O        10.641700       -2.045150        7.292260
 H        10.762500       -2.761550        8.019130
 H        11.345700       -1.408660        7.510620
 O        13.524900       -9.861060        6.963340
 H        12.829100       -9.208420        7.210850
 H        13.744400      -10.042200        7.949540
 O       -13.365400       11.949200        8.686280
 H       -13.116100       11.196200        8.040070
 H       -13.696900       11.508100        9.536810
 O         5.785360       -6.762410       -1.584330
 H         4.780440       -6.556960       -1.483970
 H         5.948510       -7.748600       -1.939670
 O         5.086130        8.561160       -4.765460
 H         4.252950        8.598390       -4.262090
 H         5.833680        8.989160       -4.216190
 O        12.472700        8.045350        2.892250
 H        12.073400        7.719450        3.720690
 H        11.822400        7.879250        2.127100
 O        14.737900        2.505480        1.622030
 H        14.503700        3.069800        0.792949
 H        15.550300        1.960330        1.326650
 O         4.657400        2.284490        0.032249
 H         5.581060        2.383190        0.382247
 H         4.131190        1.596730        0.565267
 O         4.804090       12.682500        3.801310
 H         3.801670       12.908500        3.824430
 H         5.106340       13.033400        2.915320
 O         7.139000        1.777990        1.006980
 H         7.602520        2.245140        1.802560
 H         7.868860        1.518210        0.400956
 O        10.407800        7.993560        1.286060
 H         9.836550        8.188180        2.124190
 H         9.788460        8.201510        0.566963
 O         9.220170        7.981880       -3.238110
 H         8.258700        8.214370       -3.046990
 H         9.704670        8.034790       -2.391800
 O         4.073220       14.776000        6.352250
 H         4.121540       14.242600        5.485570
 H         3.259570       15.407000        6.111350
 O        -4.801930        1.676060       -0.618745
 H        -4.884570        2.473940       -1.264360
 H        -4.674490        0.972642       -1.360570
 O        16.825600        0.491645        1.322220
 H        16.832199       -0.472726        0.997851
 H        16.699100        0.426639        2.305600
 O         7.905190       12.174000        6.734380
 H         7.741110       11.339800        7.301450
 H         8.891190       12.360400        6.834130
 O        14.752700       10.125300       -0.203952
 H        13.725200        9.974490        0.077227
 H        14.709500       10.156300       -1.237220
 O         5.597390        2.138910        8.091630
 H         4.798510        2.424880        8.625860
 H         5.189030        1.770170        7.221280
 O        16.372601        0.018748        4.176100
 H        16.099800        0.877111        4.731960
 H        15.787000       -0.748953        4.533810
 O        -4.479400        2.169060        8.057160
 H        -3.880480        1.774780        8.814400
 H        -3.948820        2.332980        7.139450
 O        14.829300       -2.073660        4.752080
 H        14.747700       -2.839270        5.405060
 H        13.959500       -2.142030        4.205060
 O        10.115400        0.823308        1.885920
 H        10.270300        1.752270        2.407430
 H        10.021800        1.165540        0.928501
 O         1.536140        2.858020       11.927400
 H         1.356480        1.842770       12.069500
 H         2.050250        3.099860       12.774400
 O        -1.461740       -0.395419        7.712110
 H        -0.627987       -0.937601        7.867480
 H        -1.595210        0.277109        8.429070
 O        -0.262962        5.092430       14.299400
 H         0.021542        5.792260       13.650900
 H        -1.287070        5.304720       14.369900
 O         4.765330       12.548900        8.137050
 H         3.986550       12.594500        8.839140
 H         4.540590       13.398200        7.558910
 O        16.980200       -6.943730       -1.028480
 H        16.033800       -7.065320       -1.485680
 H        16.812099       -6.432500       -0.204783
 O        -4.673200        4.963280       -1.344750
 H        -5.407020        5.474750       -0.807867
 H        -3.910590        5.015710       -0.720897
 O         2.286500        2.718180        5.822210
 H         3.097880        3.318550        5.974630
 H         1.635140        3.265750        5.281310
 O        -0.691020        6.529880        9.942030
 H        -1.414850        6.324310        9.217940
 H        -0.619919        7.503340       10.174500
 O         4.434350        4.215260        5.950610
 H         5.356620        3.855960        5.616790
 H         4.686450        5.102640        6.368320
 O         9.093680       13.662900       11.728100
 H         8.247140       13.164100       12.011700
 H         9.691660       12.831800       11.889400
 O         4.584820        6.535190       16.305901
 H         4.519180        7.537730       16.318300
 H         5.581820        6.303410       16.479900
 O         6.764410        1.167630       18.082800
 H         6.050420        0.576360       17.647200
 H         7.691180        0.695821       18.107401
 O         3.356970        9.480880       11.138300
 H         2.374720        9.585130       10.972800
 H         3.490030       10.023600       12.013700
 O        12.497600        0.014561        0.695577
 H        11.628900        0.092055        1.242720
 H        13.160900       -0.047584        1.450320
 O         2.687980        9.201400        3.494170
 H         2.114790        8.971630        2.718390
 H         2.426730       10.113600        3.701040
 O        -1.066370        0.026210       12.052500
 H        -0.088087        0.048522       11.795000
 H        -1.044750        0.276365       13.046700
 O         2.710250       -0.507220        9.454270
 H         1.964130       -1.041080        9.074130
 H         2.588130        0.385470        8.916730
 O        10.775100        1.036270       10.289300
 H        11.547900        0.859261       10.978100
 H        10.014600        0.421262       10.642700
 O        12.102600       -3.797290       14.673300
 H        11.440800       -4.557830       14.588700
 H        11.781200       -3.088970       13.993000
 O         6.980310       -4.699640       11.099200
 H         7.098930       -3.847980       11.559300
 H         6.480480       -5.314070       11.757800
 O         2.987140        4.551470       13.937400
 H         3.667860        3.808840       14.027200
 H         3.374590        5.284870       13.383000
 O        -2.329410       -7.790480        7.725640
 H        -2.752430       -7.202940        6.974250
 H        -3.116300       -8.076190        8.302130
 O         2.423840        7.772170        5.727190
 H         3.298750        8.082130        6.195470
 H         2.436640        8.236860        4.817770
 O        11.141300       10.311700        9.685690
 H        12.021300        9.998110       10.070600
 H        10.434700        9.560600        9.768640
 O        15.719800        1.915130        8.406670
 H        15.354700        2.784200        8.641480
 H        15.877500        1.893570        7.415440
 O        -7.834680       13.379500       15.731600
 H        -7.436490       14.311600       15.512000
 H        -7.455770       12.750600       15.031000
 O        -1.322780       11.178600       17.060400
 H        -1.192520       10.199800       17.230400
 H        -1.444130       11.068400       16.085899
 O         9.285900       13.249800        3.910390
 H        10.169400       13.519700        4.379830
 H         9.502970       13.557600        2.991230
 O         5.404800        6.290240        7.514400
 H         6.170600        6.751940        6.971540
 H         5.306350        6.937690        8.318410
 O        12.639800       16.108400        3.484110
 H        13.475200       16.157000        2.910690
 H        12.104700       16.896601        3.197610
 O         0.062378       17.816200        9.589350
 H        -0.013053       18.738001       10.048500
 H         0.149356       17.187700       10.381900
 O         0.899259       -4.105570        6.855720
 H         1.457840       -4.750200        6.354470
 H         0.633226       -4.576210        7.744360
 O         9.690230        9.765180       13.205000
 H        10.331800       10.349100       12.636600
 H         8.864850       10.384600       13.317400
 O         9.030850       20.179701        8.448100
 H         8.978540       20.697901        9.288380
 H         8.506300       20.739201        7.723250
 O        10.960900        5.414670        0.675542
 H        10.463900        6.240120        0.989422
 H        10.586100        4.845700        1.429230
 K        -6.662810        4.037570       -6.338870
 K         1.824500        5.294330        2.246050
 K         7.445120        0.168774        8.783130
 K         7.312830       11.511500        3.892200
 Cl        0.032744        9.570930       10.776400
 Cl        9.586640       17.841999        3.002150
 Cl        7.579220        7.305770       19.866301
 Cl        7.002030       11.942000       13.085100
     &END COORD
    &KIND H
      BASIS_SET ORB DZVP-MOLOPT-SR-GTH
      BASIS_SET HARRIS DZVP-MOLOPT-SR-GTH
      BASIS_SET AUX_FIT cFIT3
      POTENTIAL GTH-SCAN-q1
    &END KIND
    &KIND O
      BASIS_SET ORB DZVP-MOLOPT-SR-GTH
      BASIS_SET HARRIS DZVP-MOLOPT-SR-GTH
      BASIS_SET AUX_FIT cFIT3
      POTENTIAL GTH-SCAN-q6
    &END KIND
    &KIND K
      BASIS_SET ORB DZVP-MOLOPT-SR-GTH
      BASIS_SET HARRIS DZVP-MOLOPT-SR-GTH
      BASIS_SET AUX_FIT cFIT7
      POTENTIAL GTH-SCAN-q9
    &END KIND
    &KIND Cl
      BASIS_SET ORB DZVP-MOLOPT-SR-GTH
      BASIS_SET HARRIS DZVP-MOLOPT-SR-GTH
      BASIS_SET AUX_FIT cFIT3
      POTENTIAL GTH-SCAN-q7
    &END KIND
  &END SUBSYS
&END FORCE_EVAL

!&EXT_RESTART
!  RESTART_FILE_NAME 97-SCAN-1.restart
!&END EXT_RESTART